
List of user-set options:

                                    Name   Value                used
                           linear_solver = ma57                  yes
                  ma57_automatic_scaling = yes                   yes
                                max_iter = 200                   yes
                             mu_strategy = adaptive              yes
                             output_file = SLIP_high_fixedTIPOPTinfo.txt  yes
                             print_level = 5                     yes
                      print_user_options = yes                   yes
                                     tol = 1e-010                yes
This is Ipopt version 3.11.0, running with linear solver ma57.

Number of nonzeros in equality constraint Jacobian...:   772135
Number of nonzeros in inequality constraint Jacobian.:       26
Number of nonzeros in Lagrangian Hessian.............:   166244

Total number of variables............................:    56082
                     variables with only lower bounds:        0
                variables with lower and upper bounds:    56082
                     variables with only upper bounds:        0
Total number of equality constraints.................:    52082
Total number of inequality constraints...............:       17
        inequality constraints with only lower bounds:        0
   inequality constraints with lower and upper bounds:       17
        inequality constraints with only upper bounds:        0

iter    objective    inf_pr   inf_du lg(mu)  ||d||  lg(rg) alpha_du alpha_pr  ls
   0 0.0000000e+000 2.52e+001 3.16e-004   0.0 0.00e+000    -  0.00e+000 0.00e+000   0
   1 5.3023986e-002 2.13e+001 2.85e+002  -0.0 2.37e+000    -  5.01e-001 1.58e-001f  1
   2 3.8750974e-003 2.02e+001 2.15e+003   1.0 1.31e+001    -  9.90e-001 4.95e-002f  1
   3 -2.4824390e-002 1.61e+001 3.49e+004   1.5 1.15e+000    -  4.62e-001 2.02e-001h  1
   4 -3.9653402e-002 1.53e+001 3.38e+004   1.2 8.59e-001    -  4.92e-001 5.34e-002h  1
   5 -4.2060776e-002 1.51e+001 5.94e+005   1.6 1.57e+000    -  1.00e+000 1.01e-002h  1
   6 -6.5633561e-002 1.38e+001 2.29e+006   2.3 1.02e+000    -  1.00e+000 8.84e-002h  1
   7 -8.0616056e-002 1.28e+001 1.32e+007   3.1 1.34e+000    -  1.00e+000 6.91e-002h  1
   8 -1.1296782e-001 1.12e+001 5.27e+007   3.5 9.57e-001    -  1.00e+000 1.28e-001h  1
   9 -1.1696349e-001 1.10e+001 5.39e+007  -2.5 7.69e-001    -  8.06e-002 1.44e-002h  1
iter    objective    inf_pr   inf_du lg(mu)  ||d||  lg(rg) alpha_du alpha_pr  ls
  10 -1.5624060e-001 9.39e+000 4.80e+007   4.3 9.94e-001    -  1.60e-001 1.48e-001h  1
  11 -1.5689546e-001 9.37e+000 2.33e+008   4.1 7.08e-001    -  1.00e+000 2.43e-003h  1
  12 -1.6622390e-001 9.06e+000 1.67e+009   4.3 2.70e+000    -  3.15e-001 3.29e-002h  1
  13 -1.7028972e-001 8.92e+000 3.18e+009   4.3 3.49e+000    -  8.11e-002 1.51e-002h  1
  14 -1.8154008e-001 8.52e+000 2.01e+009   4.3 8.36e+000    -  2.06e-002 4.55e-002h  1
  15 -1.8290273e-001 8.45e+000 2.04e+009   4.3 2.64e+001    -  9.30e-003 7.55e-003h  1
  16 -1.8407092e-001 8.40e+000 2.07e+009   4.3 3.71e+001    -  8.55e-003 5.80e-003h  1
  17 -1.8492847e-001 8.37e+000 2.11e+009   4.3 4.10e+001    -  7.75e-003 4.09e-003h  1
  18 -1.8612451e-001 8.32e+000 2.28e+009   4.3 3.48e+001    -  1.60e-002 5.68e-003h  1
  19 -1.8810551e-001 8.24e+000 2.37e+009  -1.7 3.37e+001    -  1.73e-002 9.48e-003h  1
iter    objective    inf_pr   inf_du lg(mu)  ||d||  lg(rg) alpha_du alpha_pr  ls
  20 -1.8948602e-001 8.19e+000 2.36e+009   4.3 4.31e+001    -  8.57e-003 6.87e-003h  1
  21 -1.9148278e-001 8.11e+000 2.34e+009   2.8 4.12e+001    -  7.37e-003 9.60e-003h  1
  22 -1.9282119e-001 8.06e+000 2.37e+009   4.3 5.31e+001    -  1.38e-002 6.11e-003h  1
  23 -1.9383834e-001 8.02e+000 2.40e+009   4.3 3.71e+001    -  1.03e-002 4.64e-003h  1
  24 -1.9460693e-001 7.99e+000 2.42e+009   4.3 4.50e+001    -  8.66e-003 3.51e-003h  1
  25 -1.9562404e-001 7.95e+000 2.42e+009   4.3 4.40e+001    -  7.50e-003 4.65e-003h  1
  26 -1.9679670e-001 7.91e+000 2.42e+009   4.3 3.67e+001    -  7.84e-003 5.31e-003h  1
  27 -1.9855980e-001 7.85e+000 2.43e+009   4.3 3.62e+001    -  1.20e-002 7.85e-003h  1
  28 -2.0042518e-001 7.79e+000 2.85e+009   4.3 1.54e+001    -  4.64e-002 8.15e-003h  1
  29 -2.0194585e-001 7.74e+000 7.05e+009   4.3 5.90e+000    -  1.39e-001 6.50e-003h  1
iter    objective    inf_pr   inf_du lg(mu)  ||d||  lg(rg) alpha_du alpha_pr  ls
  30 -2.0606415e-001 7.60e+000 6.90e+009  -1.7 1.21e+001    -  1.74e-002 1.76e-002h  1
  31 -2.1013249e-001 7.47e+000 5.41e+009  -1.7 3.21e+001    -  9.19e-003 1.76e-002h  1
  32 -2.1033812e-001 3.31e+000 9.42e+008   4.3 9.42e-002  10.0 1.00e+000 1.00e+000f  1
  33 -2.2101299e-001 3.16e+000 8.98e+008   4.3 1.14e+001    -  3.99e-002 4.62e-002h  1
  34 -2.2845132e-001 3.05e+000 8.68e+008   4.3 1.24e+001    -  3.83e-002 3.38e-002h  1
  35 -2.3849099e-001 2.91e+000 8.27e+008   4.3 1.02e+001    -  3.95e-002 4.74e-002h  1
  36 -2.4525635e-001 2.81e+000 9.06e+008   4.3 1.24e+001    -  3.30e-002 3.38e-002h  1
  37 -2.4887137e-001 2.76e+000 7.84e+008   4.3 2.25e+001    -  2.13e-002 1.89e-002h  1
  38 -2.5072501e-001 2.73e+000 8.37e+008   4.3 4.84e+001    -  1.02e-002 9.93e-003h  1
  39 -2.5229115e-001 2.71e+000 1.49e+009  -1.7 6.06e+001    -  7.46e-003 8.51e-003h  1
iter    objective    inf_pr   inf_du lg(mu)  ||d||  lg(rg) alpha_du alpha_pr  ls
  40 -2.5317234e-001 2.69e+000 9.47e+008  -1.7 8.70e+001    -  5.44e-003 4.85e-003h  1
  41 -2.5385868e-001 2.68e+000 5.74e+009  -1.7 1.23e+002    -  2.82e-003 3.80e-003h  1
  42 -2.5434905e-001 2.68e+000 1.52e+010  -1.7 1.83e+002    -  1.84e-003 2.73e-003h  1
  43 -2.5458948e-001 2.67e+000 3.59e+009   4.2 2.92e+002    -  2.07e-003 1.35e-003h  1
  44 -2.5489118e-001 2.67e+000 8.74e+009  -1.7 2.61e+002    -  1.45e-003 1.69e-003h  1
  45 -2.5501606e-001 2.67e+000 3.02e+009   4.3 6.28e+002    -  8.90e-004 7.03e-004h  1
  46 -2.5510678e-001 2.67e+000 6.87e+009  -1.7 4.69e+002    -  7.72e-004 5.11e-004h  1
  47 -2.5525197e-001 2.66e+000 2.24e+009  -1.7 5.23e+002    -  6.20e-004 8.19e-004h  1
  48 -2.5535526e-001 2.66e+000 1.03e+010  -1.7 6.23e+002    -  7.94e-004 5.83e-004h  1
  49 -2.5541427e-001 2.66e+000 1.13e+010  -1.7 9.13e+002    -  3.47e-004 3.34e-004h  1
iter    objective    inf_pr   inf_du lg(mu)  ||d||  lg(rg) alpha_du alpha_pr  ls
  50 -2.5549092e-001 2.66e+000 2.28e+010  -1.7 6.97e+002    -  5.73e-004 4.34e-004h  1
  51 -2.5558459e-001 2.66e+000 7.55e+008  -1.7 1.14e+003    -  2.88e-004 5.31e-004h  1
  52 -2.5562561e-001 2.66e+000 4.38e+010  -1.7 6.14e+002    -  5.72e-004 2.32e-004h  1
  53 -2.5570518e-001 2.66e+000 4.53e+009  -1.7 1.61e+003    -  1.64e-004 4.51e-004h  1
  54 -2.5574631e-001 2.66e+000 3.16e+010  -1.7 1.61e+003    -  3.80e-004 2.33e-004h  1
  55 -2.5579102e-001 2.65e+000 2.82e+010  -1.7 1.71e+003    -  2.39e-004 2.54e-004h  1
  56 -2.5584270e-001 2.65e+000 1.75e+009  -1.7 1.95e+003    -  1.71e-004 2.94e-004h  1
  57 -2.5587642e-001 2.65e+000 2.08e+010  -1.7 2.06e+003    -  2.63e-004 1.91e-004h  1
  58 -2.5590101e-001 2.65e+000 2.51e+010  -1.7 2.87e+003    -  1.51e-004 1.40e-004h  1
  59 -2.5592552e-001 2.65e+000 1.28e+010  -1.7 3.98e+003    -  1.10e-004 1.39e-004h  1
iter    objective    inf_pr   inf_du lg(mu)  ||d||  lg(rg) alpha_du alpha_pr  ls
  60 -2.5594799e-001 2.65e+000 6.94e+010  -1.7 2.25e+003    -  2.30e-004 1.28e-004h  1
  61 -2.5596719e-001 2.65e+000 2.66e+010  -1.7 7.13e+003    -  2.95e-005 1.09e-004h  1
  62 -2.5598026e-001 2.65e+000 3.25e+010  -1.7 4.95e+003    -  8.25e-005 7.42e-005h  1
  63 -2.5599507e-001 2.65e+000 1.04e+011  -1.7 3.45e+003    -  1.68e-004 8.41e-005h  1
  64 -2.5601203e-001 2.65e+000 1.07e+011  -1.7 3.00e+003    -  9.87e-005 9.63e-005h  1
  65 -2.5603168e-001 2.65e+000 2.76e+010  -1.7 6.13e+003    -  4.27e-005 1.12e-004h  1
  66 -2.5604180e-001 2.65e+000 2.52e+011  -1.7 2.62e+003    -  2.06e-004 5.74e-005h  1
  67 -2.5606929e-001 2.65e+000 2.29e+010  -1.7 3.90e+003    -  3.76e-005 1.56e-004h  1
  68 -2.5607537e-001 2.65e+000 1.16e+011  -1.7 8.00e+003    -  7.61e-005 3.46e-005h  1
  69 -2.5608560e-001 2.65e+000 2.75e+010  -1.7 9.67e+003    -  2.05e-005 5.82e-005h  1
iter    objective    inf_pr   inf_du lg(mu)  ||d||  lg(rg) alpha_du alpha_pr  ls
  70 -2.5608861e-001 2.65e+000 2.37e+011   4.3 7.73e+003    -  9.26e-005 1.71e-005h  1
  71 -2.5609747e-001 2.65e+000 1.56e+011  -1.7 1.37e+004    -  2.18e-005 5.04e-005h  1
  72 -2.5610187e-001 2.65e+000 5.17e+011  -1.7 5.02e+003    -  1.12e-004 2.50e-005h  1
  73 -2.5610907e-001 2.65e+000 4.26e+011  -1.7 1.17e+004    -  2.72e-006 4.14e-005h  1
  74r-2.5610907e-001 2.65e+000 9.99e+002   4.3 0.00e+000    -  0.00e+000 3.99e-007R  4
  75r-3.0690751e-001 1.41e+000 1.83e+002  -2.0 2.42e+001    -  8.16e-001 9.58e-001f  1
  76 -3.0692351e-001 1.41e+000 3.66e+002  -0.8 3.20e+000    -  1.48e-002 1.25e-004f  1
  77 -3.0694666e-001 1.41e+000 5.20e+003  -0.8 6.77e+001    -  1.59e-003 1.65e-004f  1
  78 -3.0695129e-001 1.41e+000 9.03e+004  -4.7 5.28e+001    -  3.62e-003 3.58e-005h  1
  79 -3.0696568e-001 1.41e+000 9.86e+004  -4.7 1.38e+002    -  1.76e-004 1.13e-004h  1
iter    objective    inf_pr   inf_du lg(mu)  ||d||  lg(rg) alpha_du alpha_pr  ls
  80 -3.0696625e-001 1.41e+000 5.28e+005   0.3 6.39e+002    -  1.05e-003 4.55e-006f  1
  81 -3.0698888e-001 1.41e+000 1.49e+006   0.8 4.69e+002    -  7.99e-004 1.79e-004h  1
  82 -3.0700430e-001 1.41e+000 7.24e+006   1.6 1.24e+003    -  7.07e-004 1.22e-004h  1
  83 -3.0703483e-001 1.41e+000 1.28e+007   1.9 1.34e+003    -  4.01e-004 2.42e-004h  1
  84 -3.0706333e-001 1.41e+000 1.50e+006   1.6 3.88e+003    -  9.39e-005 2.26e-004h  1
  85 -3.0707025e-001 1.41e+000 7.35e+006   1.0 7.18e+003    -  7.47e-005 5.51e-005h  1
  86 -3.0707587e-001 1.41e+000 3.04e+006   0.9 1.12e+004    -  4.03e-005 4.48e-005h  1
  87 -3.1952552e-001 1.05e+000 1.71e+008  -4.7 1.80e-001   9.5 3.46e-001 2.84e-001h  1
  88r-3.1952552e-001 1.05e+000 9.99e+002   0.0 0.00e+000    -  0.00e+000 1.06e-007R  2
  89r-3.2129716e-001 8.25e-001 9.97e+002   1.2 7.99e+002    -  3.82e-003 1.09e-003f  1
iter    objective    inf_pr   inf_du lg(mu)  ||d||  lg(rg) alpha_du alpha_pr  ls
  90 -3.2130498e-001 8.25e-001 3.58e+002  -0.5 6.87e+000    -  1.12e-002 7.30e-005f  1
  91 -3.2130632e-001 8.25e-001 1.16e+003  -4.7 2.18e+001    -  2.16e-003 1.17e-005h  1
  92 -3.2131279e-001 8.25e-001 3.54e+003  -0.8 1.45e+002    -  7.58e-004 5.46e-005f  1
  93 -3.2131954e-001 8.25e-001 6.00e+003  -0.2 9.58e+001    -  5.16e-004 5.44e-005f  1
  94 -3.2133327e-001 8.25e-001 2.10e+004  -0.8 3.57e+001    -  1.63e-003 1.16e-004f  1
  95 -3.2133498e-001 8.25e-001 1.38e+005   0.0 1.06e+002    -  1.34e-003 1.50e-005f  1
  96 -3.2138118e-001 8.25e-001 1.42e+006   0.2 1.12e+002    -  4.41e-003 4.03e-004f  1
  97 -3.2138422e-001 8.25e-001 6.31e+006   0.3 2.69e+002    -  1.05e-003 2.68e-005h  1
  98 -3.2139333e-001 8.25e-001 3.67e+007   1.6 9.77e+002    -  1.10e-003 8.00e-005h  1
  99 -3.2141194e-001 8.25e-001 2.14e+008   2.0 8.89e+002    -  1.17e-003 1.65e-004h  1
iter    objective    inf_pr   inf_du lg(mu)  ||d||  lg(rg) alpha_du alpha_pr  ls
 100 -3.2141810e-001 8.24e-001 1.20e+009   3.3 5.84e+003    -  2.96e-004 5.47e-005h  1
 101 -3.2142373e-001 8.24e-001 2.06e+010   3.3 3.75e+003    -  7.68e-004 5.06e-005h  1
 102 -3.2312566e-001 5.51e-001 4.07e+007   3.0 3.66e-002   9.0 1.00e+000 1.00e+000f  1
 103 -3.2315414e-001 5.51e-001 1.20e+009   4.3 5.29e+002    -  4.65e-004 2.54e-004h  1
 104 -3.2317832e-001 5.50e-001 6.59e+009   1.6 4.59e+002    -  7.39e-004 2.14e-004h  1
 105 -3.2321865e-001 5.50e-001 3.82e+008   4.3 7.13e+002    -  1.75e-005 3.58e-004h  1
 106 -3.2322236e-001 5.50e-001 1.76e+010   4.3 1.19e+003    -  7.01e-004 3.29e-005h  1
 107 -3.2328178e-001 5.50e-001 1.33e+010   4.3 1.30e+003    -  4.28e-004 5.28e-004h  1
 108 -3.2328332e-001 5.50e-001 1.87e+010  -2.8 4.99e+002    -  6.70e-005 1.37e-005h  1
 109 -3.2329360e-001 5.50e-001 1.11e+010   4.3 1.19e+003    -  1.86e-005 9.20e-005h  1
iter    objective    inf_pr   inf_du lg(mu)  ||d||  lg(rg) alpha_du alpha_pr  ls
 110 -3.2329482e-001 5.50e-001 3.34e+010  -2.8 5.16e+002    -  1.86e-004 1.08e-005h  1
 111 -3.2335644e-001 5.50e-001 4.28e+010   4.3 1.27e+003    -  8.79e-006 5.54e-004h  1
 112 -3.2336760e-001 5.50e-001 5.21e+010  -2.8 1.55e+003    -  6.96e-005 1.02e-004h  1
 113r-3.2336760e-001 5.50e-001 9.99e+002  -0.3 0.00e+000    -  0.00e+000 3.75e-007R  4
 114r-3.8097453e-001 5.58e-001 9.89e+002   0.5 8.63e+000    -  6.13e-002 9.81e-003f  1
 115r-3.7626363e-001 5.58e-001 9.89e+002   2.3 2.04e+002    -  5.15e-004 3.82e-004f  1
 116r-3.0009401e-001 5.00e-001 1.10e+003   1.6 2.64e+000    -  1.03e-002 4.24e-002f  1
 117r-3.9426300e-001 4.33e-001 1.09e+003   0.9 1.24e+000    -  1.52e-001 1.00e-001f  1
 118 -3.9497270e-001 4.25e-001 1.39e+001  -0.8 1.32e+000    -  1.29e-001 1.87e-002f  1
 119 -3.9522543e-001 4.23e-001 1.47e+002  -0.8 5.89e+000    -  4.21e-002 5.48e-003f  1
iter    objective    inf_pr   inf_du lg(mu)  ||d||  lg(rg) alpha_du alpha_pr  ls
 120 -3.9684676e-001 4.08e-001 1.24e+002  -0.8 5.87e+000    -  6.09e-002 3.41e-002f  1
 121 -3.9740762e-001 4.03e-001 3.74e+002  -0.9 1.91e+000    -  1.15e-001 1.23e-002f  1
 122 -3.9772091e-001 4.00e-001 1.70e+003  -0.9 1.70e+000    -  1.23e-001 7.55e-003f  1
 123 -3.9900960e-001 3.89e-001 1.76e+003  -1.0 8.30e+000    -  3.40e-002 2.70e-002f  1
 124 -3.9915775e-001 3.88e-001 3.13e+003  -1.0 2.86e+000    -  5.40e-002 3.35e-003f  1
 125 -3.9934858e-001 3.87e-001 5.24e+003  -0.6 6.65e+000    -  6.76e-002 4.14e-003f  1
 126 -4.0040217e-001 3.77e-001 1.46e+004  -0.3 6.89e+000    -  1.16e-001 2.59e-002f  1
 127 -4.0089552e-001 3.72e-001 1.35e+005   0.2 1.65e+001    -  1.21e-001 1.20e-002f  1
 128 -4.0177536e-001 3.64e-001 6.36e+006   1.2 3.01e+001    -  5.25e-001 2.09e-002f  1
 129 -4.0361003e-001 3.47e-001 3.20e+007   1.9 1.35e+001    -  2.51e-001 4.75e-002h  1
iter    objective    inf_pr   inf_du lg(mu)  ||d||  lg(rg) alpha_du alpha_pr  ls
 130 -4.0447962e-001 3.38e-001 6.53e+007   2.2 1.41e+001    -  6.48e-002 2.50e-002h  1
 131 -4.0488304e-001 3.34e-001 5.46e+009   3.1 4.98e+001    -  1.00e+000 1.24e-002h  1
 132 -4.0514363e-001 3.31e-001 1.00e+010   4.3 5.33e+001    -  2.60e-002 8.17e-003h  1
 133 -4.0536118e-001 3.29e-001 4.56e+010   4.3 8.17e+001    -  6.44e-002 6.95e-003h  1
 134 -4.0566705e-001 3.26e-001 2.44e+010   4.3 7.60e+001    -  3.19e-003 9.95e-003h  1
 135 -4.0567945e-001 3.26e-001 4.84e+010  -2.5 6.29e+001    -  3.44e-003 4.11e-004h  1
 136 -4.0580938e-001 3.24e-001 2.98e+010   4.3 1.73e+002    -  2.82e-003 4.32e-003h  1
 137 -4.0581535e-001 3.24e-001 7.64e+010  -2.5 9.23e+001    -  1.42e-003 2.01e-004h  1
 138 -4.0589585e-001 3.23e-001 3.54e+010   4.3 2.92e+002    -  8.16e-004 2.71e-003h  1
 139 -4.0590112e-001 3.23e-001 4.02e+011  -2.5 6.41e+002    -  9.63e-004 1.79e-004h  1
iter    objective    inf_pr   inf_du lg(mu)  ||d||  lg(rg) alpha_du alpha_pr  ls
 140 -4.0590304e-001 3.23e-001 1.10e+012  -2.5 1.42e+003    -  2.81e-004 6.57e-005h  1
 141 -4.0590701e-001 3.23e-001 9.63e+011   4.3 3.05e+003    -  1.22e-004 1.36e-004h  1
 142 -4.0590792e-001 3.23e-001 9.20e+012   4.3 3.94e+003    -  1.69e-004 2.93e-005h  1
 143 -4.0590797e-001 3.23e-001 1.81e+008   2.0 1.49e-005  13.1 1.00e+000 1.00e+000s 22
 144r-4.0590797e-001 3.23e-001 1.00e+003   1.9 0.00e+000  12.6 0.00e+000 4.77e-007R 22
 145r-4.9456882e-001 2.45e-001 1.43e+003   1.8 2.84e-001    -  7.33e-001 1.00e+000f  1
 146 -4.8110966e-001 2.21e-001 1.12e+001  -0.8 1.24e+000    -  2.83e-001 9.62e-002h  1
 147 -4.8045962e-001 2.19e-001 7.41e+001  -0.4 5.91e+000    -  8.27e-002 7.21e-003f  1
 148 -4.7443889e-001 2.05e-001 7.90e+002  -0.0 9.99e+000    -  9.90e-001 6.49e-002f  1
 149 -4.7284326e-001 2.01e-001 3.50e+003  -0.0 2.54e+000    -  5.25e-001 2.08e-002h  1
iter    objective    inf_pr   inf_du lg(mu)  ||d||  lg(rg) alpha_du alpha_pr  ls
 150 -4.6712024e-001 1.86e-001 1.03e+004   0.6 5.10e+000    -  5.06e-001 7.28e-002h  1
 151 -4.6649596e-001 1.85e-001 1.28e+005   1.8 1.43e+001    -  2.59e-001 5.53e-003f  1
 152 -4.5829865e-001 1.63e-001 7.50e+005   1.8 1.86e+000    -  1.00e+000 1.21e-001h  1
 153 -4.5824166e-001 1.63e-001 1.80e+007   3.5 8.82e+000    -  3.89e-001 8.84e-004h  1
 154 -4.5766402e-001 1.59e-001 6.06e+008   4.1 2.00e+000    -  1.00e+000 2.50e-002h  1
 155 -4.5588085e-001 1.52e-001 1.00e+009   4.3 1.85e+001    -  1.62e-001 4.34e-002h  1
 156 -4.5581769e-001 1.51e-001 1.20e+009   4.3 2.03e+001    -  5.84e-002 1.97e-003h  1
 157 -4.5394780e-001 1.42e-001 1.18e+009   4.3 1.41e+001    -  7.61e-002 6.17e-002h  1
 158 -4.5370511e-001 1.41e-001 1.50e+009   4.3 7.42e+000    -  9.69e-002 9.82e-003h  1
 159 -4.5369009e-001 1.41e-001 2.75e+009   4.3 5.72e+000    -  7.52e-002 1.26e-003h  1
iter    objective    inf_pr   inf_du lg(mu)  ||d||  lg(rg) alpha_du alpha_pr  ls
 160 -4.5323156e-001 1.36e-001 2.29e+009   4.3 1.69e+001    -  1.88e-002 3.39e-002h  1
 161 -4.5298284e-001 1.34e-001 2.33e+009   4.3 3.25e+001    -  1.59e-002 1.39e-002h  1
 162 -4.5268340e-001 1.32e-001 1.92e+009   4.3 3.66e+001    -  8.27e-003 1.58e-002h  1
 163 -4.5246409e-001 1.30e-001 1.49e+009   4.3 6.16e+001    -  5.63e-003 1.11e-002h  1
 164 -4.5245087e-001 1.30e-001 5.97e+009   4.3 4.48e+001    -  3.21e-002 6.87e-004h  1
 165 -4.5243702e-001 1.30e-001 1.09e+010   4.3 4.42e+001    -  1.00e-002 9.13e-004h  1
 166 -4.5232704e-001 1.29e-001 1.03e+010   4.3 6.71e+001    -  5.70e-003 6.32e-003h  1
 167 -4.5224677e-001 1.29e-001 1.35e+010   4.3 9.15e+001    -  6.52e-003 3.92e-003h  1
 168 -4.5218367e-001 1.28e-001 9.64e+009   4.3 1.37e+002    -  6.12e-004 2.53e-003h  1
 169 -4.5213462e-001 1.28e-001 9.73e+009   4.3 1.58e+002    -  1.96e-003 1.92e-003h  1
iter    objective    inf_pr   inf_du lg(mu)  ||d||  lg(rg) alpha_du alpha_pr  ls
 170 -4.5209694e-001 1.28e-001 1.44e+010   4.3 1.77e+002    -  2.84e-003 1.47e-003h  1
 171 -4.5204851e-001 1.28e-001 1.21e+010   4.3 2.16e+002    -  1.44e-003 1.88e-003h  1
 172 -4.5202607e-001 1.28e-001 2.10e+010   4.3 1.64e+002    -  2.09e-003 8.75e-004h  1
 173 -4.5199603e-001 1.27e-001 3.00e+010   4.3 2.97e+002    -  2.00e-003 1.17e-003h  1
 174 -4.5198060e-001 1.27e-001 5.75e+010   4.3 3.13e+002    -  2.17e-003 6.03e-004h  1
 175 -4.5196221e-001 1.27e-001 6.39e+010   4.3 5.97e+002    -  9.44e-004 7.18e-004h  1
 176 -4.5195236e-001 1.27e-001 8.65e+010   4.3 6.57e+002    -  9.42e-004 3.84e-004h  1
 177 -4.5194264e-001 1.27e-001 1.15e+011   4.3 6.91e+002    -  8.92e-004 3.79e-004h  1
 178 -4.5193213e-001 1.27e-001 1.42e+011   4.3 8.58e+002    -  7.45e-004 4.11e-004h  1
 179 -4.5192421e-001 1.27e-001 1.71e+011   4.3 8.94e+002    -  5.59e-004 3.10e-004h  1
iter    objective    inf_pr   inf_du lg(mu)  ||d||  lg(rg) alpha_du alpha_pr  ls
 180 -4.5191917e-001 1.27e-001 2.15e+011   4.3 1.55e+003    -  4.78e-004 1.97e-004h  1
 181 -4.5191238e-001 1.27e-001 2.14e+011   4.3 1.89e+003    -  2.60e-004 2.65e-004h  1
 182 -4.5191008e-001 1.27e-001 2.78e+011  -1.7 1.17e+003    -  3.33e-004 9.00e-005h  1
 183 -4.5190547e-001 1.27e-001 2.80e+011   4.3 2.75e+003    -  1.85e-004 1.80e-004h  1
 184 -4.5190357e-001 1.27e-001 3.63e+011  -1.7 1.34e+003    -  2.79e-004 7.45e-005h  1
 185 -4.5189939e-001 1.27e-001 3.57e+011   4.3 3.17e+003    -  1.52e-004 1.64e-004h  1
 186 -4.5189780e-001 1.27e-001 4.63e+011  -1.7 2.25e+003    -  2.34e-004 6.24e-005h  1
 187 -4.5189483e-001 1.27e-001 4.93e+011   4.3 3.54e+003    -  1.56e-004 1.16e-004h  1
 188 -4.5189245e-001 1.27e-001 5.90e+011   4.3 2.11e+003    -  1.97e-004 9.32e-005h  1
 189 -4.5188941e-001 1.27e-001 6.61e+011   4.3 3.17e+003    -  1.80e-004 1.19e-004h  1
iter    objective    inf_pr   inf_du lg(mu)  ||d||  lg(rg) alpha_du alpha_pr  ls
 190 -4.5188860e-001 1.27e-001 9.30e+011  -1.7 2.81e+003    -  2.04e-004 3.15e-005h  1
 191 -4.5188403e-001 1.27e-001 7.41e+011   4.3 3.80e+003    -  8.19e-005 1.79e-004h  1
